NAME : CON8-9.8090012.tour
COMMENT : Cost = 0_8090012
COMMENT : Found by LKH [Keld Helsgaun] Sat Sep  9 21:20:45 2017
TYPE : TOUR
DIMENSION : 59
TOUR_SECTION
1
20
43
39
42
45
57
3
12
49
31
13
11
52
19
21
18
15
2
59
40
33
34
51
47
55
26
29
6
32
37
53
24
38
22
16
50
54
7
25
27
41
10
44
56
8
4
36
30
14
23
58
17
28
46
48
9
5
35
-1
EOF
